c --- [ banner ] -------------------------------------------------------------
c 
c CaDiCaL Radically Simplified CDCL SAT Solver
c Copyright (c) 2016-2021 A. Biere, M. Fleury, N. Froleyks
c 
c Version 1.5.2 9c38a080b32c28d805e8e6ca21849856b0cda605
c g++ (Ubuntu 7.5.0-3ubuntu1~18.04) 7.5.0 -Wall -Wextra -O3 -DNDEBUG
c Wed Feb 16 23:15:36 EST 2022 Linux fac-vanhoeve01 5.4.0-99-generic x86_64
c 
c --- [ limit ] --------------------------------------------------------------
c 
c setting time limit to 600 seconds real time (due to '-t 600')
c setting conflict limit to 1000000000 conflicts (due to '1000000000')
c 
c --- [ parsing input ] ------------------------------------------------------
c 
c reading DIMACS file from 'ddfwcnfs/wap08a.col_40.cnf'
c opening file to read 'ddfwcnfs/wap08a.col_40.cnf'
c found 'p cnf 74800 3915790' header
c parsed 3915790 clauses in 2.37 seconds process time
c closing file 'ddfwcnfs/wap08a.col_40.cnf'
c after reading 62264655 bytes 59.4 MB
c 
c --- [ options ] ------------------------------------------------------------
c 
c all options are set to their default value
c 
c --- [ solving ] ------------------------------------------------------------
c 
c time measured in process time since initialization
c 
c  seconds   reductions  redundant   irredundant
c          MB    restarts       trail        variables
c           level   conflicts       glue          remaining
c 
c *  2.37 339  0 0   0    0    0  0% 0 3914190 73200 98%
c {  2.40 341  0 0   0    0    0  0% 0 3914190 73200 98%
c -  3.16 341 40 1   0  300  211  5% 33 3914190 73200 98%
c }  3.30 341 39 1   0 1001  651  5% 33 3914190 73200 98%
c [  3.30 341  0 1   0 1001  651  0% 0 3914190 73200 98%
c O  3.30 341 34 1   0 1002  652  7% 28 3914190 73200 98%
c -  5.38 431 43 2   0 1856  938  7% 38 3914190 73200 98%
c ]  5.52 431 44 2   1 3003 1626  7% 39 3914190 73200 98%
c {  5.52 431 39 2   1 3003 1626  5% 33 3914190 73200 98%
c F  5.52 431 39 2   1 3004 1627  5% 33 3914190 73200 98%
c -  7.06 431 97 3   1 4190 1985  7% 33 3914190 73200 98%
c # 10.71 429 85 3   7 6006 3229  8% 33 3914190 73200 98%
c } 10.84 429 77 3  10 7003 3957  8% 33 3914190 73200 98%
c [ 10.84 429 44 3  10 7003 3957  7% 39 3914190 73200 98%
c - 12.35 429 45 4  11 7301 2721  8% 39 3914190 73200 98%
c I 12.75 429 48 4  12 10007 4458  8% 39 3914190 73200 98%
c - 14.48 429 981 5  13 11189 3447 16% 46 3914190 73200 98%
c s 15.90 429 949 5  14 11483 3590 17% 48 3914190 73200 98%
c e 24.23 430 949 5  14 11483 3161 17% 48 3262654 66383 89%
c s 25.66 476 949 5  14 11483 3152 17% 48 3262654 66383 89%
c 
c  seconds    reductions   redundant    irredundant
c          MB     restarts        trail         variables
c            level    conflicts       glue           remaining
c 
c ^ 26.42 476 949 5  14 11483 3152 17% 48 3262654 66383 89%
c ] 32.39 462 659 5  15 15004 6080 12% 58 3262654 66383 89%
c { 32.39 462 77 5  15 15004 6080  9% 33 3262654 66383 89%
c B 32.39 462 77 5  15 15008 6084  9% 33 3262654 66383 89%
c - 34.25 463 98 6 151 15856 4562 10% 35 3262654 66383 89%
c W 36.33 463 70 6 182 21009 7258  9% 36 3262654 66383 89%
c - 37.76 462 74 7 199 21135 3994  9% 36 3262654 66383 89%
c - 39.90 462 69 8 317 27167 4476  9% 36 3262654 66383 89%
c F 39.98 462 68 8 320 28010 4889  9% 36 3262654 66383 89%
c } 43.73 462 63 8 321 31008 7138  8% 36 3262654 66383 89%
c [ 43.73 462 659 8 321 31008 7138 12% 58 3262654 66383 89%
c - 45.44 463 521 9 322 33955 6309 12% 56 3262654 66383 89%
c s 45.60 463 521 9 322 33961 5937 12% 56 3262654 66383 89%
c s 51.88 463 521 9 322 33961 5840 12% 56 3262654 66383 89%
c ^ 52.57 463 521 9 322 33961 5840 12% 56 3262654 66383 89%
c B 52.88 463 453 9 324 36011 7153 11% 54 3262654 66383 89%
c - 56.60 465 1275 10 327 41495 8179 25% 78 3262654 66383 89%
c W 59.06 465 1097 10 328 45012 11012 23% 78 3262654 66383 89%
c - 61.23 464 1324 11 329 49790 8930 29% 75 3262654 66383 89%
c O 66.46 464 1255 11 330 55017 13355 35% 86 3262654 66383 89%
c 
c  seconds     reductions    redundant    irredundant
c          MB       restarts        trail         variables
c            level      conflicts       glue           remaining
c 
c - 68.24 466 1113 12 333 58838 9517 31% 82 3262654 66383 89%
c ] 68.79 466 988 12 336 63008 12271 28% 79 3262654 66383 89%
c { 68.79 466 63 12 336 63008 12271  8% 36 3262654 66383 89%
c B 69.13 466 60 12 345 66018 14342  8% 36 3262654 66383 89%
c s 69.73 466 61 12 406 67677 14935  8% 36 3262654 66383 89%
c s 76.17 466 61 12 406 67677 14627  8% 36 3262654 66383 89%
c ^ 76.89 466 61 12 406 67677 14627  8% 36 3262654 66383 89%
c - 78.39 464 60 13 427 68642 8842  8% 36 3262654 66383 89%
c W 85.23 464 54 13 502 78020 13821  9% 37 3262654 66383 89%
c - 87.04 463 58 14 588 79198 8068  9% 37 3262654 66383 89%
c - 89.37 463 53 15 787 90509 7750  9% 37 3262654 66383 89%
c # 89.42 463 53 15 787 91023 7993  9% 37 3262654 66383 89%
c - 92.12 464 50 16 858 102576 10239  8% 37 3262654 66383 89%
c B 95.90 464 49 16 859 105028 11779  8% 37 3262654 66383 89%
c s 97.37 464 50 16 958 112630 17685  8% 37 3262654 66383 89%
c s 103.79 464 50 16 958 112630 17660  8% 37 3262654 66383 89%
c ^ 104.51 464 50 16 958 112630 17660  8% 37 3262654 66383 89%
c - 106.21 464 50 17 959 115395 12643  8% 37 3262654 66383 89%
c W 109.81 464 50 17 971 120032 16391  8% 37 3262654 66383 89%
c } 110.67 464 49 17 983 127008 22143  8% 37 3262654 66383 89%
c 
c  seconds     reductions      redundant    irredundant
c           MB      restarts          trail         variables
c             level     conflicts         glue           remaining
c 
c [ 110.67 464 988 17 983 127008 22143 28% 79 3262654 66383 89%
c - 112.25 465 938 18 983 128968 14763 27% 77 3262654 66383 89%
c B 113.26 465 787 18 988 136034 20291 23% 70 3262654 66383 89%
c - 121.40 469 1161 19 991 143295 16519 28% 88 3262654 66383 89%
c W 126.73 469 1037 19 992 153037 24110 30% 90 3262654 66383 89%
c - 129.31 468 1148 20 992 158378 16163 29% 91 3262654 66383 89%
c s 132.73 468 1465 20 993 168823 24478 33% 100 3262654 66383 89%
c s 139.41 468 1465 20 993 168823 24452 33% 100 3262654 66383 89%
c ^ 140.17 468 1465 20 993 168823 24452 33% 100 3262654 66383 89%
c I 141.08 468 1535 20 995 171038 26399 34% 101 3262654 66383 89%
c - 143.57 471 1629 21 998 174213 17788 34% 102 3262654 66383 89%
c B 151.59 471 1612 21 1006 190039 30829 35% 104 3262654 66383 89%
c - 153.26 470 1643 22 1006 190805 18209 35% 104 3262654 66383 89%
c - 158.35 468 1434 23 1013 208150 18694 33% 101 3262654 66383 89%
c W 162.83 468 1399 23 1014 210041 20128 33% 100 3262654 66383 89%
c - 170.85 467 1263 24 1022 226247 18975 34% 94 3262654 66383 89%
c O 171.43 467 1191 24 1022 231042 21994 32% 92 3262654 66383 89%
c s 172.34 467 1120 24 1023 236253 25812 31% 89 3262654 66383 89%
c w 175.36 467 1120 24 1023 236253 25812 31% 89 3262654 66383 89%
c s 179.16 467 1120 24 1023 236253 25788 31% 89 3262654 66383 89%
c 
c  seconds      reductions       redundant    irredundant
c           MB       restarts           trail         variables
c             level       conflicts         glue           remaining
c 
c - 182.55 466 1009 25 1023 245100 19335 29% 86 3262654 66383 89%
c B 183.78 466 922 25 1024 253047 25227 27% 84 3262654 66383 89%
c ] 184.11 466 1037 25 1024 255009 26700 27% 83 3262654 66383 89%
c { 184.11 466 49 25 1024 255009 26700  8% 37 3262654 66383 89%
c - 186.85 466 50 26 1174 264705 18382  8% 37 3262654 66383 89%
c F 191.86 466 48 26 1299 276048 24812  8% 37 3262654 66383 89%
c - 194.59 465 48 27 1325 285064 18560  8% 37 3262654 66383 89%
c B 196.78 465 46 27 1335 300049 29191  8% 37 3262654 66383 89%
c - 199.00 466 51 28 2859 306178 19887  8% 38 3262654 66383 89%
c W 207.16 466 55 28 7667 325051 34169  8% 39 3262654 66383 89%
c - 209.64 467 57 29 7855 328046 21773  8% 39 3262654 66383 89%
c - 217.60 466 54 30 8027 350670 22191  8% 39 3262654 66383 89%
c # 217.66 466 54 30 8027 351053 22435  8% 39 3262654 66383 89%
c - 222.06 466 52 31 8079 374048 23638  8% 38 3262654 66383 89%
c B 222.65 466 51 31 8079 378055 26711  8% 38 3262654 66383 89%
c - 230.41 466 50 32 8256 398181 21743  8% 38 3262654 66383 89%
c W 238.81 466 49 32 8269 406056 26719  8% 38 3262654 66383 89%
c - 242.43 466 48 33 8311 423065 21464  8% 38 3262654 66383 89%
c F 243.90 466 47 33 8418 435057 28007  8% 38 3262654 66383 89%
c - 246.76 466 46 34 8426 448703 21911  8% 38 3262654 66383 89%
c 
c  seconds    reductions       redundant    irredundant
c           MB     restarts           trail         variables
c            level      conflicts         glue           remaining
c 
c B 252.28 466 45 34 8457 465058 33172  8% 38 3262654 66383 89%
c - 254.97 466 46 35 8956 475096 23433  8% 38 3262654 66383 89%
c W 265.47 466 45 35 9170 496060 35087  8% 38 3262654 66383 89%
c - 267.59 466 44 36 9194 502242 22744  8% 38 3262654 66383 89%
c } 268.68 466 44 36 9225 511012 27758  8% 38 3262654 66383 89%
c [ 268.68 466 1037 36 9225 511012 27758 27% 83 3262654 66383 89%
c W 283.43 466 856 36 9225 528061 39361 24% 76 3262654 66383 89%
c - 285.08 467 836 37 9225 530143 24584 23% 75 3262654 66383 89%
c - 290.42 467 616 38 9238 558798 26920 19% 66 3262654 66383 89%
c I 290.82 467 602 38 9239 561067 28452 19% 66 3262654 66383 89%
c - 306.53 485 2462 39 9250 588207 32577 26% 90 3262654 66383 89%
c B 308.58 485 2521 39 9254 595071 38177 26% 92 3262654 66383 89%
c - 320.66 478 2072 40 9256 618370 32115 29% 97 3262654 66383 89%
c W 333.64 478 1856 40 9262 630074 40919 28% 101 3262654 66383 89%
c - 340.57 478 1693 41 9271 649288 33393 28% 103 3262654 66383 89%
c s 340.85 478 1693 41 9271 649288 33100 28% 103 3262654 66383 89%
c w 344.42 478 1693 41 9271 649288 33096 28% 103 3262654 66383 89%
c O 348.94 478 1453 41 9278 666075 46333 26% 103 3262654 66383 89%
c - 356.45 474 1255 42 9286 680960 33512 24% 96 3262654 66383 89%
c B 359.86 474 1020 42 9287 703077 49282 21% 90 3262654 66383 89%
c 
c  seconds      reductions       redundant    irredundant
c           MB       restarts           trail         variables
c             level       conflicts         glue           remaining
c 
c - 363.98 474 1299 43 9288 713385 33099 22% 96 3262654 66383 89%
c W 386.47 474 2116 43 9289 741078 55477 26% 112 3262654 66383 89%
c - 388.61 482 2011 44 9289 746564 36375 25% 109 3262654 66383 89%
c I 397.93 482 1478 44 9289 780082 61433 22% 98 3262654 66383 89%
c - 399.66 473 1635 45 9289 780497 35455 22% 100 3262654 66383 89%
c - 434.60 558 8824 46 9296 815186 39361 33% 289 3262654 66383 89%
c B 435.56 558 8416 46 9299 820084 43139 32% 280 3262654 66383 89%
c - 443.84 477 6356 47 9312 850628 39031 33% 230 3262654 66383 89%
c W 462.92 477 5765 47 9318 861086 47114 31% 217 3262654 66383 89%
c - 468.14 475 5086 48 9320 886825 37677 32% 185 3262654 66383 89%
c O 469.86 475 4342 48 9330 903087 50020 28% 164 3262654 66383 89%
c - 473.32 470 3543 49 9338 923775 37906 24% 141 3262654 66383 89%
c B 476.17 470 2849 49 9350 946090 51994 20% 121 3262654 66383 89%
c - 492.59 492 3523 50 9351 961480 38348 25% 161 3262654 66383 89%
c W 518.43 492 2744 50 9352 990091 61629 26% 160 3262654 66383 89%
c - 522.14 485 2507 51 9352 999940 41868 26% 157 3262654 66383 89%
c ] 528.51 485 2434 51 9365 1023012 61166 26% 153 3262654 66383 89%
c { 528.51 485 44 51 9365 1023012 61166  8% 38 3262654 66383 89%
c # 530.66 485 45 51 9601 1035092 69050  8% 38 3262654 66383 89%
c - 532.77 479 45 52 9604 1039153 40827  8% 38 3262654 66383 89%
c 
c  seconds    reductions        redundant    irredundant
c           MB     restarts            trail         variables
c            level       conflicts         glue           remaining
c 
c - 543.55 469 43 53 9620 1079118 38715  8% 37 3262654 66383 89%
c B 543.91 469 43 53 9620 1081094 40009  8% 37 3262654 66383 89%
c - 551.77 469 54 54 9778 1119837 40334  8% 36 3262654 66383 89%
c s 552.24 469 54 54 9778 1119837 39387  8% 36 3262654 66383 89%
c w 556.29 469 54 54 9778 1119837 39374  8% 36 3262654 66383 89%
c W 574.30 469 53 54 9976 1128096 43603  8% 36 3262654 66383 89%
c - 582.96 468 50 55 10942 1161310 33455  8% 37 3262654 66383 89%
c F 584.45 468 49 55 11182 1176097 40843  8% 37 3262654 66383 89%
c - 588.26 468 47 56 11269 1203540 34682  8% 37 3262654 66383 89%
c B 591.11 468 45 56 11304 1225100 47968  8% 37 3262654 66383 89%
c - 595.61 469 45 57 11430 1246523 37615  8% 37 3262654 66383 89%
c } 600.28 469 45 57 11432 1265020 49064  7% 36 3262654 66383 89%
c ? 600.28 469 45 57 11432 1265020 49064  7% 36 3262654 66383 89%
c 
c --- [ result ] -------------------------------------------------------------
c 
c UNKNOWN
c 
c --- [ run-time profiling ] -------------------------------------------------
c 
c process time taken by individual solving procedures
c (percentage relative to process time for solving)
c 
c       470.24   78.65% search
c       239.50   40.06% stable
c       127.67   21.35% simplify
c       116.99   19.57% unstable
c       113.73   19.02% walk
c        31.67    5.30% ternary
c        21.53    3.60% elim
c        19.33    3.23% vivify
c        16.63    2.78% probe
c         4.75    0.80% subsume
c         2.37    0.40% parse
c         0.03    0.01% lucky
c   =================================
c       597.91   99.61% solve
c 
c last line shows process time for solving
c (percentage relative to total process time)
c 
c --- [ statistics ] ---------------------------------------------------------
c 
c chronological:            218755        17.29 %  of conflicts
c conflicts:               1265020      2115.74    per second
c decisions:               2479934      4147.68    per second
c eliminated:                 6817         9.11 %  of all variables
c fixed:                      1600         2.14 %  of all variables
c learned:                 1251991        98.97 %  per conflict
c learned_lits:          214883623       100.00 %  learned literals
c minimized:                     0         0.00 %  learned literals
c shrunken:               74646611        34.74 %  learned literals
c minishrunken:            6085417         2.83 %  learned literals
c propagations:          459069359         0.77 M  per second
c reduced:                  860529        68.02 %  per conflict
c rephased:                     49     25816.73    interval
c restarts:                  11432       110.66    interval
c stabilizing:                   5        53.91 %  of conflicts
c subsumed:                 341943         3.26 %  of all clauses
c strengthened:              11159         0.11 %  of all clauses
c vivified:                     65         0.00 %  of all clauses
c walked:                       15     84334.67    interval
c weakened:                 724238         2.40    average size
c 
c seconds are measured in process time for solving
c 
c --- [ resources ] ----------------------------------------------------------
c 
c total process time since initialization:       600.28    seconds
c total real time since initialization:          600.35    seconds
c maximum resident set size of process:          657.46    MB
c 
c --- [ shutting down ] ------------------------------------------------------
c 
c exit 0
